NAME          
ROWS
 N  OBJ
 L  c2
 L  c3
 L  c4
 L  c5
 L  c6
 L  c7
 L  c8
 L  c9
 L  c10
 L  c11
 G  c1
COLUMNS
    ss[1]     c1        1
    ss[1]     OBJ       1000
    s[1]      c2        1
    s[1]      OBJ       -1000
    s[2]      c3        1
    s[2]      OBJ       -1000
    s[3]      c4        1
    s[3]      OBJ       -1000
    s[4]      c5        1
    s[4]      OBJ       -1000
    s[5]      c6        1
    s[5]      OBJ       -1000
    s[6]      c7        1
    s[6]      OBJ       -1000
    s[7]      c8        1
    s[7]      OBJ       -1000
    s[8]      c9        1
    s[8]      OBJ       -1000
    s[9]      c10       1
    s[9]      OBJ       -1000
    s[10]     c11       1
    s[10]     OBJ       -1000
    MARKER    'MARKER'                 'INTORG'
    x[1]      c2        131
    x[1]      c3        538
    x[1]      c4        704
    x[1]      c5        53
    x[1]      c6        64
    x[1]      c7        440
    x[1]      c8        864
    x[1]      c9        204
    x[1]      c10       647
    x[1]      c11       273
    x[1]      c1        556
    x[1]      OBJ       -621
    x[2]      c2        374
    x[2]      c3        320
    x[2]      c4        776
    x[2]      c5        26
    x[2]      c6        141
    x[2]      c7        502
    x[2]      c8        195
    x[2]      c9        503
    x[2]      c10       682
    x[2]      c11       245
    x[2]      c1        736
    x[2]      OBJ       -405
    x[3]      c2        804
    x[3]      c3        879
    x[3]      c4        448
    x[3]      c5        302
    x[3]      c6        216
    x[3]      c7        757
    x[3]      c8        79
    x[3]      c9        93
    x[3]      c10       20
    x[3]      c11       372
    x[3]      c1        301
    x[3]      OBJ       -893
    x[4]      c2        27
    x[4]      c3        160
    x[4]      c4        848
    x[4]      c5        219
    x[4]      c6        455
    x[4]      c7        152
    x[4]      c8        231
    x[4]      c9        261
    x[4]      c10       437
    x[4]      c11       468
    x[4]      c1        111
    x[4]      OBJ       -852
    x[5]      c2        719
    x[5]      c3        488
    x[5]      c4        544
    x[5]      c5        212
    x[5]      c6        536
    x[5]      c7        223
    x[5]      c8        82
    x[5]      c9        905
    x[5]      c10       275
    x[5]      c11       366
    x[5]      c1        704
    x[5]      OBJ       -637
    x[6]      c2        55
    x[6]      c3        88
    x[6]      c4        621
    x[6]      c5        629
    x[6]      c6        391
    x[6]      c7        491
    x[6]      c8        624
    x[6]      c9        124
    x[6]      c10       190
    x[6]      c11       5
    x[6]      c1        408
    x[6]      OBJ       -806
    x[7]      c2        32
    x[7]      c3        319
    x[7]      c4        916
    x[7]      c5        255
    x[7]      c6        387
    x[7]      c7        881
    x[7]      c8        911
    x[7]      c9        517
    x[7]      c10       669
    x[7]      c11       479
    x[7]      c1        163
    x[7]      OBJ       -1243
    x[8]      c2        361
    x[8]      c3        857
    x[8]      c4        446
    x[8]      c5        636
    x[8]      c6        180
    x[8]      c7        22
    x[8]      c8        311
    x[8]      c9        339
    x[8]      c10       266
    x[8]      c11       883
    x[8]      c1        315
    x[8]      OBJ       -881
    x[9]      c2        636
    x[9]      c3        602
    x[9]      c4        881
    x[9]      c5        389
    x[9]      c6        757
    x[9]      c7        394
    x[9]      c8        480
    x[9]      c9        798
    x[9]      c10       710
    x[9]      c11       43
    x[9]      c1        670
    x[9]      OBJ       -897
    x[10]     c2        475
    x[10]     c3        482
    x[10]     c4        508
    x[10]     c5        760
    x[10]     c6        9
    x[10]     c7        734
    x[10]     c8        82
    x[10]     c9        883
    x[10]     c10       820
    x[10]     c11       218
    x[10]     c1        457
    x[10]     OBJ       -630
    x[11]     c2        944
    x[11]     c3        328
    x[11]     c4        782
    x[11]     c5        637
    x[11]     c6        42
    x[11]     c7        266
    x[11]     c8        684
    x[11]     c9        125
    x[11]     c10       742
    x[11]     c11       623
    x[11]     c1        357
    x[11]     OBJ       -1125
    x[12]     c2        638
    x[12]     c3        157
    x[12]     c4        603
    x[12]     c5        745
    x[12]     c6        700
    x[12]     c7        400
    x[12]     c8        190
    x[12]     c9        389
    x[12]     c10       169
    x[12]     c11       972
    x[12]     c1        916
    x[12]     OBJ       -534
    x[13]     c2        890
    x[13]     c3        497
    x[13]     c4        679
    x[13]     c5        668
    x[13]     c6        501
    x[13]     c7        925
    x[13]     c8        761
    x[13]     c9        9
    x[13]     c10       583
    x[13]     c11       840
    x[13]     c1        614
    x[13]     OBJ       -998
    x[14]     c2        24
    x[14]     c3        868
    x[14]     c4        127
    x[14]     c5        461
    x[14]     c6        497
    x[14]     c7        700
    x[14]     c8        939
    x[14]     c9        478
    x[14]     c10       96
    x[14]     c11       811
    x[14]     c1        60
    x[14]     OBJ       -1084
    x[15]     c2        971
    x[15]     c3        991
    x[15]     c4        108
    x[15]     c5        827
    x[15]     c6        272
    x[15]     c7        968
    x[15]     c8        710
    x[15]     c9        776
    x[15]     c10       286
    x[15]     c11       117
    x[15]     c1        373
    x[15]     OBJ       -1124
    x[16]     c2        149
    x[16]     c3        995
    x[16]     c4        934
    x[16]     c5        250
    x[16]     c6        480
    x[16]     c7        359
    x[16]     c8        228
    x[16]     c9        481
    x[16]     c10       520
    x[16]     c11       462
    x[16]     c1        182
    x[16]     OBJ       -1206
    x[17]     c2        249
    x[17]     c3        934
    x[17]     c4        762
    x[17]     c5        986
    x[17]     c6        704
    x[17]     c7        773
    x[17]     c8        424
    x[17]     c9        929
    x[17]     c10       555
    x[17]     c11       188
    x[17]     c1        129
    x[17]     OBJ       -1149
    x[18]     c2        659
    x[18]     c3        262
    x[18]     c4        959
    x[18]     c5        592
    x[18]     c6        754
    x[18]     c7        293
    x[18]     c8        297
    x[18]     c9        519
    x[18]     c10       165
    x[18]     c11       933
    x[18]     c1        767
    x[18]     OBJ       -371
    x[19]     c2        722
    x[19]     c3        198
    x[19]     c4        147
    x[19]     c5        304
    x[19]     c6        929
    x[19]     c7        582
    x[19]     c8        366
    x[19]     c9        499
    x[19]     c10       187
    x[19]     c11       594
    x[19]     c1        896
    x[19]     OBJ       -288
    x[20]     c2        660
    x[20]     c3        196
    x[20]     c4        95
    x[20]     c5        862
    x[20]     c6        117
    x[20]     c7        231
    x[20]     c8        126
    x[20]     c9        599
    x[20]     c10       382
    x[20]     c11       999
    x[20]     c1        178
    x[20]     OBJ       -941
    x[21]     c2        745
    x[21]     c3        616
    x[21]     c4        587
    x[21]     c5        281
    x[21]     c6        130
    x[21]     c7        347
    x[21]     c8        978
    x[21]     c9        991
    x[21]     c10       512
    x[21]     c11       474
    x[21]     c1        975
    x[21]     OBJ       -203
    x[22]     c2        483
    x[22]     c3        246
    x[22]     c4        21
    x[22]     c5        724
    x[22]     c6        362
    x[22]     c7        462
    x[22]     c8        199
    x[22]     c9        856
    x[22]     c10       112
    x[22]     c11       276
    x[22]     c1        226
    x[22]     OBJ       -1052
    x[23]     c2        805
    x[23]     c3        794
    x[23]     c4        234
    x[23]     c5        471
    x[23]     c6        935
    x[23]     c7        639
    x[23]     c8        582
    x[23]     c9        497
    x[23]     c10       428
    x[23]     c11       2
    x[23]     c1        404
    x[23]     OBJ       -1153
    x[24]     c2        338
    x[24]     c3        403
    x[24]     c4        450
    x[24]     c5        552
    x[24]     c6        743
    x[24]     c7        846
    x[24]     c8        32
    x[24]     c9        296
    x[24]     c10       694
    x[24]     c11       215
    x[24]     c1        833
    x[24]     OBJ       -527
    x[25]     c2        181
    x[25]     c3        493
    x[25]     c4        959
    x[25]     c5        815
    x[25]     c6        82
    x[25]     c7        313
    x[25]     c8        422
    x[25]     c9        313
    x[25]     c10       496
    x[25]     c11       353
    x[25]     c1        575
    x[25]     OBJ       -447
    x[26]     c2        772
    x[26]     c3        30
    x[26]     c4        721
    x[26]     c5        883
    x[26]     c6        94
    x[26]     c7        167
    x[26]     c8        586
    x[26]     c9        570
    x[26]     c10       299
    x[26]     c11       864
    x[26]     c1        340
    x[26]     OBJ       -768
    x[27]     c2        904
    x[27]     c3        966
    x[27]     c4        682
    x[27]     c5        457
    x[27]     c6        371
    x[27]     c7        120
    x[27]     c8        89
    x[27]     c9        457
    x[27]     c10       418
    x[27]     c11       286
    x[27]     c1        321
    x[27]     OBJ       -770
    x[28]     c2        783
    x[28]     c3        509
    x[28]     c4        425
    x[28]     c5        700
    x[28]     c6        361
    x[28]     c7        236
    x[28]     c8        459
    x[28]     c9        407
    x[28]     c10       288
    x[28]     c11       658
    x[28]     c1        580
    x[28]     OBJ       -870
    x[29]     c2        891
    x[29]     c3        883
    x[29]     c4        37
    x[29]     c5        164
    x[29]     c6        743
    x[29]     c7        654
    x[29]     c8        574
    x[29]     c9        653
    x[29]     c10       997
    x[29]     c11       810
    x[29]     c1        425
    x[29]     OBJ       -844
    x[30]     c2        421
    x[30]     c3        795
    x[30]     c4        910
    x[30]     c5        247
    x[30]     c6        473
    x[30]     c7        692
    x[30]     c8        924
    x[30]     c9        216
    x[30]     c10       626
    x[30]     c11       643
    x[30]     c1        955
    x[30]     OBJ       -483
    x[31]     c2        133
    x[31]     c3        762
    x[31]     c4        634
    x[31]     c5        754
    x[31]     c6        655
    x[31]     c7        651
    x[31]     c8        235
    x[31]     c9        873
    x[31]     c10       933
    x[31]     c11       763
    x[31]     c1        739
    x[31]     OBJ       -885
    x[32]     c2        126
    x[32]     c3        7
    x[32]     c4        629
    x[32]     c5        136
    x[32]     c6        986
    x[32]     c7        104
    x[32]     c8        735
    x[32]     c9        768
    x[32]     c10       11
    x[32]     c11       660
    x[32]     c1        473
    x[32]     OBJ       -653
    x[33]     c2        268
    x[33]     c3        156
    x[33]     c4        506
    x[33]     c5        764
    x[33]     c6        871
    x[33]     c7        664
    x[33]     c8        674
    x[33]     c9        621
    x[33]     c10       673
    x[33]     c11       95
    x[33]     c1        946
    x[33]     OBJ       -186
    x[34]     c2        857
    x[34]     c3        748
    x[34]     c4        610
    x[34]     c5        483
    x[34]     c6        446
    x[34]     c7        644
    x[34]     c8        387
    x[34]     c9        906
    x[34]     c10       767
    x[34]     c11       579
    x[34]     c1        666
    x[34]     OBJ       -762
    x[35]     c2        792
    x[35]     c3        147
    x[35]     c4        556
    x[35]     c5        301
    x[35]     c6        517
    x[35]     c7        504
    x[35]     c8        775
    x[35]     c9        742
    x[35]     c10       744
    x[35]     c11       860
    x[35]     c1        630
    x[35]     OBJ       -940
    x[36]     c2        243
    x[36]     c3        418
    x[36]     c4        610
    x[36]     c5        650
    x[36]     c6        902
    x[36]     c7        336
    x[36]     c8        671
    x[36]     c9        866
    x[36]     c10       322
    x[36]     c11       409
    x[36]     c1        462
    x[36]     OBJ       -726
    x[37]     c2        756
    x[37]     c3        91
    x[37]     c4        791
    x[37]     c5        562
    x[37]     c6        711
    x[37]     c7        590
    x[37]     c8        31
    x[37]     c9        414
    x[37]     c10       179
    x[37]     c11       944
    x[37]     c1        841
    x[37]     OBJ       -552
    x[38]     c2        485
    x[38]     c3        39
    x[38]     c4        583
    x[38]     c5        289
    x[38]     c6        451
    x[38]     c7        643
    x[38]     c8        798
    x[38]     c9        904
    x[38]     c10       654
    x[38]     c11       116
    x[38]     c1        2
    x[38]     OBJ       -1234
    x[39]     c2        245
    x[39]     c3        730
    x[39]     c4        897
    x[39]     c5        137
    x[39]     c6        42
    x[39]     c7        644
    x[39]     c8        2
    x[39]     c9        187
    x[39]     c10       156
    x[39]     c11       384
    x[39]     c1        778
    x[39]     OBJ       -545
    x[40]     c2        315
    x[40]     c3        431
    x[40]     c4        189
    x[40]     c5        806
    x[40]     c6        458
    x[40]     c7        758
    x[40]     c8        640
    x[40]     c9        206
    x[40]     c10       481
    x[40]     c11       236
    x[40]     c1        714
    x[40]     OBJ       -422
    x[41]     c2        440
    x[41]     c3        465
    x[41]     c4        983
    x[41]     c5        995
    x[41]     c6        42
    x[41]     c7        27
    x[41]     c8        257
    x[41]     c9        184
    x[41]     c10       193
    x[41]     c11       637
    x[41]     c1        855
    x[41]     OBJ       -230
    x[42]     c2        94
    x[42]     c3        707
    x[42]     c4        59
    x[42]     c5        618
    x[42]     c6        450
    x[42]     c7        24
    x[42]     c8        253
    x[42]     c9        557
    x[42]     c10       888
    x[42]     c11       563
    x[42]     c1        768
    x[42]     OBJ       -279
    x[43]     c2        570
    x[43]     c3        12
    x[43]     c4        837
    x[43]     c5        121
    x[43]     c6        184
    x[43]     c7        727
    x[43]     c8        138
    x[43]     c9        125
    x[43]     c10       222
    x[43]     c11       371
    x[43]     c1        141
    x[43]     OBJ       -789
    x[44]     c2        992
    x[44]     c3        690
    x[44]     c4        974
    x[44]     c5        780
    x[44]     c6        533
    x[44]     c7        36
    x[44]     c8        663
    x[44]     c9        260
    x[44]     c10       165
    x[44]     c11       723
    x[44]     c1        847
    x[44]     OBJ       -564
    x[45]     c2        114
    x[45]     c3        302
    x[45]     c4        19
    x[45]     c5        974
    x[45]     c6        563
    x[45]     c7        34
    x[45]     c8        622
    x[45]     c9        462
    x[45]     c10       848
    x[45]     c11       818
    x[45]     c1        325
    x[45]     OBJ       -927
    x[46]     c2        40
    x[46]     c3        997
    x[46]     c4        735
    x[46]     c5        438
    x[46]     c6        550
    x[46]     c7        110
    x[46]     c8        206
    x[46]     c9        527
    x[46]     c10       745
    x[46]     c11       19
    x[46]     c1        765
    x[46]     OBJ       -413
    x[47]     c2        780
    x[47]     c3        363
    x[47]     c4        275
    x[47]     c5        444
    x[47]     c6        431
    x[47]     c7        831
    x[47]     c8        365
    x[47]     c9        327
    x[47]     c10       8
    x[47]     c11       773
    x[47]     c1        10
    x[47]     OBJ       -1397
    x[48]     c2        834
    x[48]     c3        9
    x[48]     c4        966
    x[48]     c5        171
    x[48]     c6        654
    x[48]     c7        326
    x[48]     c8        485
    x[48]     c9        947
    x[48]     c10       487
    x[48]     c11       309
    x[48]     c1        162
    x[48]     OBJ       -1187
    x[49]     c2        918
    x[49]     c3        208
    x[49]     c4        634
    x[49]     c5        813
    x[49]     c6        648
    x[49]     c7        925
    x[49]     c8        886
    x[49]     c9        739
    x[49]     c10       420
    x[49]     c11       830
    x[49]     c1        208
    x[49]     OBJ       -1255
    x[50]     c2        279
    x[50]     c3        107
    x[50]     c4        641
    x[50]     c5        362
    x[50]     c6        474
    x[50]     c7        378
    x[50]     c8        271
    x[50]     c9        239
    x[50]     c10       824
    x[50]     c11       640
    x[50]     c1        981
    x[50]     OBJ       -482
    x[51]     c2        35
    x[51]     c3        73
    x[51]     c4        119
    x[51]     c5        193
    x[51]     c6        841
    x[51]     c7        974
    x[51]     c8        964
    x[51]     c9        667
    x[51]     c10       376
    x[51]     c11       709
    x[51]     c1        638
    x[51]     OBJ       -536
    x[52]     c2        789
    x[52]     c3        649
    x[52]     c4        896
    x[52]     c5        687
    x[52]     c6        730
    x[52]     c7        17
    x[52]     c8        147
    x[52]     c9        765
    x[52]     c10       983
    x[52]     c11       651
    x[52]     c1        184
    x[52]     OBJ       -1136
    x[53]     c2        442
    x[53]     c3        877
    x[53]     c4        873
    x[53]     c5        308
    x[53]     c6        748
    x[53]     c7        835
    x[53]     c8        564
    x[53]     c9        336
    x[53]     c10       649
    x[53]     c11       634
    x[53]     c1        124
    x[53]     OBJ       -1156
    x[54]     c2        430
    x[54]     c3        561
    x[54]     c4        762
    x[54]     c5        979
    x[54]     c6        793
    x[54]     c7        297
    x[54]     c8        135
    x[54]     c9        117
    x[54]     c10       625
    x[54]     c11       860
    x[54]     c1        910
    x[54]     OBJ       -298
    x[55]     c2        812
    x[55]     c3        17
    x[55]     c4        285
    x[55]     c5        160
    x[55]     c6        79
    x[55]     c7        579
    x[55]     c8        836
    x[55]     c9        659
    x[55]     c10       890
    x[55]     c11       619
    x[55]     c1        332
    x[55]     OBJ       -769
    x[56]     c2        212
    x[56]     c3        604
    x[56]     c4        919
    x[56]     c5        460
    x[56]     c6        82
    x[56]     c7        239
    x[56]     c8        493
    x[56]     c9        979
    x[56]     c10       360
    x[56]     c11       839
    x[56]     c1        634
    x[56]     OBJ       -520
    x[57]     c2        560
    x[57]     c3        65
    x[57]     c4        62
    x[57]     c5        436
    x[57]     c6        819
    x[57]     c7        268
    x[57]     c8        814
    x[57]     c9        632
    x[57]     c10       925
    x[57]     c11       794
    x[57]     c1        555
    x[57]     OBJ       -705
    x[58]     c2        32
    x[58]     c3        375
    x[58]     c4        191
    x[58]     c5        795
    x[58]     c6        645
    x[58]     c7        231
    x[58]     c8        290
    x[58]     c9        921
    x[58]     c10       804
    x[58]     c11       676
    x[58]     c1        55
    x[58]     OBJ       -1014
    x[59]     c2        362
    x[59]     c3        11
    x[59]     c4        892
    x[59]     c5        1000
    x[59]     c6        270
    x[59]     c7        964
    x[59]     c8        216
    x[59]     c9        739
    x[59]     c10       598
    x[59]     c11       136
    x[59]     c1        396
    x[59]     OBJ       -845
    x[60]     c2        937
    x[60]     c3        493
    x[60]     c4        539
    x[60]     c5        496
    x[60]     c6        743
    x[60]     c7        736
    x[60]     c8        48
    x[60]     c9        246
    x[60]     c10       552
    x[60]     c11       224
    x[60]     c1        23
    x[60]     OBJ       -1300
    x[61]     c2        627
    x[61]     c3        261
    x[61]     c4        556
    x[61]     c5        886
    x[61]     c6        18
    x[61]     c7        405
    x[61]     c8        356
    x[61]     c9        48
    x[61]     c10       939
    x[61]     c11       789
    x[61]     c1        171
    x[61]     OBJ       -883
    x[62]     c2        537
    x[62]     c3        615
    x[62]     c4        976
    x[62]     c5        827
    x[62]     c6        184
    x[62]     c7        367
    x[62]     c8        520
    x[62]     c9        193
    x[62]     c10       683
    x[62]     c11       762
    x[62]     c1        310
    x[62]     OBJ       -947
    x[63]     c2        939
    x[63]     c3        253
    x[63]     c4        625
    x[63]     c5        708
    x[63]     c6        297
    x[63]     c7        287
    x[63]     c8        977
    x[63]     c9        111
    x[63]     c10       169
    x[63]     c11       534
    x[63]     c1        181
    x[63]     OBJ       -1154
    x[64]     c2        145
    x[64]     c3        735
    x[64]     c4        898
    x[64]     c5        849
    x[64]     c6        381
    x[64]     c7        455
    x[64]     c8        251
    x[64]     c9        80
    x[64]     c10       772
    x[64]     c11       48
    x[64]     c1        378
    x[64]     OBJ       -958
    x[65]     c2        562
    x[65]     c3        61
    x[65]     c4        157
    x[65]     c5        136
    x[65]     c6        502
    x[65]     c7        85
    x[65]     c8        938
    x[65]     c9        606
    x[65]     c10       424
    x[65]     c11       308
    x[65]     c1        600
    x[65]     OBJ       -766
    x[66]     c2        388
    x[66]     c3        712
    x[66]     c4        451
    x[66]     c5        666
    x[66]     c6        76
    x[66]     c7        198
    x[66]     c8        613
    x[66]     c9        78
    x[66]     c10       93
    x[66]     c11       817
    x[66]     c1        742
    x[66]     OBJ       -567
    x[67]     c2        644
    x[67]     c3        339
    x[67]     c4        750
    x[67]     c5        349
    x[67]     c6        222
    x[67]     c7        746
    x[67]     c8        352
    x[67]     c9        180
    x[67]     c10       284
    x[67]     c11       39
    x[67]     c1        275
    x[67]     OBJ       -1031
    x[68]     c2        25
    x[68]     c3        592
    x[68]     c4        496
    x[68]     c5        212
    x[68]     c6        367
    x[68]     c7        682
    x[68]     c8        936
    x[68]     c9        966
    x[68]     c10       845
    x[68]     c11       899
    x[68]     c1        601
    x[68]     OBJ       -709
    x[69]     c2        895
    x[69]     c3        824
    x[69]     c4        396
    x[69]     c5        801
    x[69]     c6        2
    x[69]     c7        140
    x[69]     c8        501
    x[69]     c9        8
    x[69]     c10       803
    x[69]     c11       332
    x[69]     c1        951
    x[69]     OBJ       -447
    x[70]     c2        931
    x[70]     c3        596
    x[70]     c4        365
    x[70]     c5        777
    x[70]     c6        747
    x[70]     c7        582
    x[70]     c8        102
    x[70]     c9        501
    x[70]     c10       654
    x[70]     c11       178
    x[70]     c1        731
    x[70]     OBJ       -526
    x[71]     c2        21
    x[71]     c3        594
    x[71]     c4        359
    x[71]     c5        22
    x[71]     c6        992
    x[71]     c7        928
    x[71]     c8        857
    x[71]     c9        87
    x[71]     c10       295
    x[71]     c11       23
    x[71]     c1        166
    x[71]     OBJ       -1267
    x[72]     c2        171
    x[72]     c3        362
    x[72]     c4        302
    x[72]     c5        233
    x[72]     c6        200
    x[72]     c7        911
    x[72]     c8        567
    x[72]     c9        623
    x[72]     c10       28
    x[72]     c11       736
    x[72]     c1        659
    x[72]     OBJ       -612
    x[73]     c2        151
    x[73]     c3        798
    x[73]     c4        837
    x[73]     c5        516
    x[73]     c6        733
    x[73]     c7        14
    x[73]     c8        47
    x[73]     c9        194
    x[73]     c10       622
    x[73]     c11       563
    x[73]     c1        15
    x[73]     OBJ       -1327
    x[74]     c2        744
    x[74]     c3        57
    x[74]     c4        533
    x[74]     c5        743
    x[74]     c6        21
    x[74]     c7        243
    x[74]     c8        872
    x[74]     c9        142
    x[74]     c10       403
    x[74]     c11       994
    x[74]     c1        230
    x[74]     OBJ       -996
    x[75]     c2        858
    x[75]     c3        368
    x[75]     c4        568
    x[75]     c5        922
    x[75]     c6        24
    x[75]     c7        617
    x[75]     c8        80
    x[75]     c9        423
    x[75]     c10       580
    x[75]     c11       40
    x[75]     c1        577
    x[75]     OBJ       -445
    x[76]     c2        103
    x[76]     c3        619
    x[76]     c4        476
    x[76]     c5        63
    x[76]     c6        469
    x[76]     c7        926
    x[76]     c8        534
    x[76]     c9        497
    x[76]     c10       358
    x[76]     c11       5
    x[76]     c1        807
    x[76]     OBJ       -582
    x[77]     c2        263
    x[77]     c3        452
    x[77]     c4        723
    x[77]     c5        407
    x[77]     c6        690
    x[77]     c7        43
    x[77]     c8        122
    x[77]     c9        29
    x[77]     c10       647
    x[77]     c11       636
    x[77]     c1        420
    x[77]     OBJ       -792
    x[78]     c2        766
    x[78]     c3        274
    x[78]     c4        849
    x[78]     c5        483
    x[78]     c6        541
    x[78]     c7        728
    x[78]     c8        505
    x[78]     c9        878
    x[78]     c10       983
    x[78]     c11       751
    x[78]     c1        862
    x[78]     OBJ       -741
    x[79]     c2        606
    x[79]     c3        619
    x[79]     c4        473
    x[79]     c5        238
    x[79]     c6        906
    x[79]     c7        741
    x[79]     c8        424
    x[79]     c9        668
    x[79]     c10       547
    x[79]     c11       129
    x[79]     c1        974
    x[79]     OBJ       -417
    x[80]     c2        722
    x[80]     c3        729
    x[80]     c4        351
    x[80]     c5        355
    x[80]     c6        524
    x[80]     c7        939
    x[80]     c8        458
    x[80]     c9        824
    x[80]     c10       56
    x[80]     c11       829
    x[80]     c1        991
    x[80]     OBJ       -592
    x[81]     c2        555
    x[81]     c3        638
    x[81]     c4        616
    x[81]     c5        296
    x[81]     c6        413
    x[81]     c7        147
    x[81]     c8        359
    x[81]     c9        930
    x[81]     c10       110
    x[81]     c11       667
    x[81]     c1        795
    x[81]     OBJ       -625
    x[82]     c2        863
    x[82]     c3        979
    x[82]     c4        222
    x[82]     c5        820
    x[82]     c6        219
    x[82]     c7        823
    x[82]     c8        299
    x[82]     c9        797
    x[82]     c10       895
    x[82]     c11       502
    x[82]     c1        938
    x[82]     OBJ       -308
    x[83]     c2        47
    x[83]     c3        611
    x[83]     c4        820
    x[83]     c5        206
    x[83]     c6        968
    x[83]     c7        328
    x[83]     c8        639
    x[83]     c9        236
    x[83]     c10       713
    x[83]     c11       558
    x[83]     c1        792
    x[83]     OBJ       -526
    x[84]     c2        599
    x[84]     c3        807
    x[84]     c4        985
    x[84]     c5        432
    x[84]     c6        405
    x[84]     c7        424
    x[84]     c8        428
    x[84]     c9        621
    x[84]     c10       114
    x[84]     c11       225
    x[84]     c1        647
    x[84]     OBJ       -724
    x[85]     c2        270
    x[85]     c3        192
    x[85]     c4        57
    x[85]     c5        340
    x[85]     c6        517
    x[85]     c7        492
    x[85]     c8        260
    x[85]     c9        986
    x[85]     c10       628
    x[85]     c11       272
    x[85]     c1        59
    x[85]     OBJ       -1181
    x[86]     c2        596
    x[86]     c3        663
    x[86]     c4        456
    x[86]     c5        970
    x[86]     c6        423
    x[86]     c7        994
    x[86]     c8        596
    x[86]     c9        39
    x[86]     c10       941
    x[86]     c11       446
    x[86]     c1        991
    x[86]     OBJ       -476
    x[87]     c2        802
    x[87]     c3        129
    x[87]     c4        956
    x[87]     c5        1000
    x[87]     c6        129
    x[87]     c7        958
    x[87]     c8        227
    x[87]     c9        257
    x[87]     c10       191
    x[87]     c11       750
    x[87]     c1        759
    x[87]     OBJ       -706
    x[88]     c2        232
    x[88]     c3        822
    x[88]     c4        315
    x[88]     c5        13
    x[88]     c6        194
    x[88]     c7        677
    x[88]     c8        53
    x[88]     c9        216
    x[88]     c10       883
    x[88]     c11       127
    x[88]     c1        627
    x[88]     OBJ       -515
    x[89]     c2        273
    x[89]     c3        885
    x[89]     c4        81
    x[89]     c5        167
    x[89]     c6        918
    x[89]     c7        940
    x[89]     c8        487
    x[89]     c9        858
    x[89]     c10       936
    x[89]     c11       900
    x[89]     c1        328
    x[89]     OBJ       -1174
    x[90]     c2        94
    x[90]     c3        609
    x[90]     c4        469
    x[90]     c5        187
    x[90]     c6        226
    x[90]     c7        20
    x[90]     c8        727
    x[90]     c9        235
    x[90]     c10       863
    x[90]     c11       250
    x[90]     c1        902
    x[90]     OBJ       -103
    x[91]     c2        405
    x[91]     c3        396
    x[91]     c4        261
    x[91]     c5        386
    x[91]     c6        736
    x[91]     c7        441
    x[91]     c8        139
    x[91]     c9        956
    x[91]     c10       387
    x[91]     c11       494
    x[91]     c1        629
    x[91]     OBJ       -622
    x[92]     c2        466
    x[92]     c3        964
    x[92]     c4        50
    x[92]     c5        769
    x[92]     c6        584
    x[92]     c7        758
    x[92]     c8        383
    x[92]     c9        661
    x[92]     c10       256
    x[92]     c11       380
    x[92]     c1        510
    x[92]     OBJ       -756
    x[93]     c2        611
    x[93]     c3        732
    x[93]     c4        258
    x[93]     c5        891
    x[93]     c6        731
    x[93]     c7        677
    x[93]     c8        757
    x[93]     c9        624
    x[93]     c10       985
    x[93]     c11       716
    x[93]     c1        103
    x[93]     OBJ       -1467
    x[94]     c2        223
    x[94]     c3        908
    x[94]     c4        778
    x[94]     c5        429
    x[94]     c6        261
    x[94]     c7        974
    x[94]     c8        447
    x[94]     c9        173
    x[94]     c10       636
    x[94]     c11       218
    x[94]     c1        788
    x[94]     OBJ       -545
    x[95]     c2        727
    x[95]     c3        520
    x[95]     c4        852
    x[95]     c5        965
    x[95]     c6        988
    x[95]     c7        150
    x[95]     c8        902
    x[95]     c9        896
    x[95]     c10       105
    x[95]     c11       857
    x[95]     c1        73
    x[95]     OBJ       -1352
    x[96]     c2        995
    x[96]     c3        781
    x[96]     c4        668
    x[96]     c5        375
    x[96]     c6        43
    x[96]     c7        144
    x[96]     c8        617
    x[96]     c9        240
    x[96]     c10       499
    x[96]     c11       730
    x[96]     c1        379
    x[96]     OBJ       -995
    x[97]     c2        924
    x[97]     c3        870
    x[97]     c4        507
    x[97]     c5        545
    x[97]     c6        390
    x[97]     c7        948
    x[97]     c8        16
    x[97]     c9        321
    x[97]     c10       155
    x[97]     c11       328
    x[97]     c1        573
    x[97]     OBJ       -719
    x[98]     c2        879
    x[98]     c3        411
    x[98]     c4        433
    x[98]     c5        599
    x[98]     c6        662
    x[98]     c7        659
    x[98]     c8        881
    x[98]     c9        795
    x[98]     c10       316
    x[98]     c11       446
    x[98]     c1        783
    x[98]     OBJ       -734
    x[99]     c2        191
    x[99]     c3        77
    x[99]     c4        285
    x[99]     c5        550
    x[99]     c6        658
    x[99]     c7        643
    x[99]     c8        252
    x[99]     c9        198
    x[99]     c10       696
    x[99]     c11       372
    x[99]     c1        310
    x[99]     OBJ       -898
    x[100]    c2        445
    x[100]    c3        540
    x[100]    c4        482
    x[100]    c5        34
    x[100]    c6        931
    x[100]    c7        932
    x[100]    c8        392
    x[100]    c9        425
    x[100]    c10       861
    x[100]    c11       962
    x[100]    c1        38
    x[100]    OBJ       -1416
RHS
    rhs       c2        25015
    rhs       c3        24701
    rhs       c4        27636
    rhs       c5        25693
    rhs       c6        23518
    rhs       c7        25416
    rhs       c8        22952
    rhs       c9        24601
    rhs       c10       25554
    rhs       c11       25478
    rhs       c1        25678
RANGES
BOUNDS
 LO bounds    ss[1]     0
 PL bounds    ss[1]
 MI bounds    s[1]
 UP bounds    s[1]      0
 MI bounds    s[2]
 UP bounds    s[2]      0
 MI bounds    s[3]
 UP bounds    s[3]      0
 MI bounds    s[4]
 UP bounds    s[4]      0
 MI bounds    s[5]
 UP bounds    s[5]      0
 MI bounds    s[6]
 UP bounds    s[6]      0
 MI bounds    s[7]
 UP bounds    s[7]      0
 MI bounds    s[8]
 UP bounds    s[8]      0
 MI bounds    s[9]
 UP bounds    s[9]      0
 MI bounds    s[10]
 UP bounds    s[10]     0
 BV bounds    x[1]
 BV bounds    x[2]
 BV bounds    x[3]
 BV bounds    x[4]
 BV bounds    x[5]
 BV bounds    x[6]
 BV bounds    x[7]
 BV bounds    x[8]
 BV bounds    x[9]
 BV bounds    x[10]
 BV bounds    x[11]
 BV bounds    x[12]
 BV bounds    x[13]
 BV bounds    x[14]
 BV bounds    x[15]
 BV bounds    x[16]
 BV bounds    x[17]
 BV bounds    x[18]
 BV bounds    x[19]
 BV bounds    x[20]
 BV bounds    x[21]
 BV bounds    x[22]
 BV bounds    x[23]
 BV bounds    x[24]
 BV bounds    x[25]
 BV bounds    x[26]
 BV bounds    x[27]
 BV bounds    x[28]
 BV bounds    x[29]
 BV bounds    x[30]
 BV bounds    x[31]
 BV bounds    x[32]
 BV bounds    x[33]
 BV bounds    x[34]
 BV bounds    x[35]
 BV bounds    x[36]
 BV bounds    x[37]
 BV bounds    x[38]
 BV bounds    x[39]
 BV bounds    x[40]
 BV bounds    x[41]
 BV bounds    x[42]
 BV bounds    x[43]
 BV bounds    x[44]
 BV bounds    x[45]
 BV bounds    x[46]
 BV bounds    x[47]
 BV bounds    x[48]
 BV bounds    x[49]
 BV bounds    x[50]
 BV bounds    x[51]
 BV bounds    x[52]
 BV bounds    x[53]
 BV bounds    x[54]
 BV bounds    x[55]
 BV bounds    x[56]
 BV bounds    x[57]
 BV bounds    x[58]
 BV bounds    x[59]
 BV bounds    x[60]
 BV bounds    x[61]
 BV bounds    x[62]
 BV bounds    x[63]
 BV bounds    x[64]
 BV bounds    x[65]
 BV bounds    x[66]
 BV bounds    x[67]
 BV bounds    x[68]
 BV bounds    x[69]
 BV bounds    x[70]
 BV bounds    x[71]
 BV bounds    x[72]
 BV bounds    x[73]
 BV bounds    x[74]
 BV bounds    x[75]
 BV bounds    x[76]
 BV bounds    x[77]
 BV bounds    x[78]
 BV bounds    x[79]
 BV bounds    x[80]
 BV bounds    x[81]
 BV bounds    x[82]
 BV bounds    x[83]
 BV bounds    x[84]
 BV bounds    x[85]
 BV bounds    x[86]
 BV bounds    x[87]
 BV bounds    x[88]
 BV bounds    x[89]
 BV bounds    x[90]
 BV bounds    x[91]
 BV bounds    x[92]
 BV bounds    x[93]
 BV bounds    x[94]
 BV bounds    x[95]
 BV bounds    x[96]
 BV bounds    x[97]
 BV bounds    x[98]
 BV bounds    x[99]
 BV bounds    x[100]
ENDATA
